TCS_Benchmarks/redos_fix/corpus2_output_distinct_4739_4738_8_0.smt2
(set-logic QF_S)
(declare-const x String)
(assert (str.in.re x (re.inter  (re.++ (re.* (re.union (re.range "\u{00}" "\u{09}") (re.range "\u{0b}" "\u{0c}") (re.range "\u{0e}" "\u{84}") (re.range "\u{86}" "\u{ff}")) ) (re.*  (re.union  (str.to.re "\u{20}")  (str.to_re "\u{09}")) ))  (re.++ (re.* (re.union (re.range "\u{00}" "\u{09}") (re.range "\u{0b}" "\u{0c}") (re.range "\u{0e}" "\u{84}") (re.range "\u{86}" "\u{ff}")) ) (re.++  (re.++  (str.to.re "\u{46}") (re.++  (str.to.re "\u{54}") (re.++  (str.to.re "\u{5f}") (re.++  (str.to.re "\u{54}") (re.++  (str.to.re "\u{52}") (re.++  (str.to.re "\u{41}") (re.++  (str.to.re "\u{43}") (re.++  (str.to.re "\u{45}") (re.++  (str.to.re "\u{5f}") (re.++  (str.to.re "\u{44}") (re.++  (str.to.re "\u{45}") (re.++  (str.to.re "\u{46}") (re.++ (re.*  (re.union  (str.to.re "\u{20}")  (str.to_re "\u{09}")) )  (str.to.re "\u{28}")))))))))))))) (re.*  (re.union  (str.to.re "\u{20}")  (str.to_re "\u{09}")) ))) )))
(check-sat)
(get-model)