TCS_Benchmarks/redos_fix/corpus2_output_distinct_4739_4738_8_0.txt
(.*)([ \t]*)
(.*)(FT_TRACE_DEF[ \t]*\()([ \t]*)